NAME          GRAN
ROWS
 G  N
 G  P
 G  K
 G  MG
 E  WATR
 G  S
 G  CA
 G  MN
 G  FE
 L  CL
 G  ZN
 E  AMMO
 L  LIQP
 L  HEAT
 E  WT
 N  COST
 N  PRICE
COLUMNS
*234567890123456789012345678901234567890123456789012345678901
    I820000   N             0.820000   AMMO         -1.000000   
    I820000   LIQP         10.000000   HEAT         27.650000   
    I820000   WT            1.000000   COST        175.000000   
    I820000   PRICE       175.000000   SCALE      2000.000000   
    I440000   N             0.440000   WATR          0.064000   
    I440000   AMMO         -0.238000   LIQP         20.000000   
    I440000   HEAT          7.418000   WT            1.000000   
    I440000   COST        147.640000   PRICE       147.640000   
    I440000   SCALE      2000.000000   
    I210000   N             0.210000   S             0.240000   
    I210000   LIQP          2.000000   WT            1.000000   
    I210000   COST        110.000000   PRICE       139.770000   
    I210000   SCALE      2000.000000   
    ISACID    WATR          0.223000   S             0.250000   
    ISACID    AMMO          0.270000   LIQP         20.000000   
    ISACID    HEAT          8.938000   WT            1.000000   
    ISACID    COST         21.600000   PRICE        21.600000   
    ISACID    SCALE      2000.000000   
    I005400   P             0.530000   WATR          0.180000   
    I005400   AMMO          0.195000   LIQP         20.000000   
    I005400   HEAT          2.662000   WT            1.000000   
    I005400   COST        168.000000   PRICE       168.000000   
    I005400   SCALE      2000.000000   
    I105000   N             0.100000   P             0.495000   
    I105000   AMMO          0.030000   LIQP          4.000000   
    I105000   WT            1.000000   COST        176.000000   
    I105000   PRICE       176.000000   SCALE      2000.000000   
    I004600   P             0.460000   WATR          0.060000   
    I004600   S             0.010000   CA            0.140000   
    I004600   AMMO          0.080000   LIQP          4.000000   
    I004600   HEAT          0.134000   WT            1.000000   
    I004600   COST        140.000000   PRICE       177.890000   
    I004600   SCALE      2000.000000   
    I002000   P             0.180000   WATR          0.080000   
    I002000   S             0.110000   CA            0.200000   
    I002000   AMMO          0.050000   LIQP          2.000000   
    I002000   HEAT          0.100000   WT            1.000000   
    I002000   COST         80.000000   PRICE        80.000000   
    I002000   SCALE      2000.000000   
    I000060   K             0.605000   CL            0.480000   
    I000060   LIQP          2.000000   WT            1.000000   
    I000060   COST         90.000000   PRICE       114.360000   
    I000060   SCALE      2000.000000   
    I000050   K             0.510000   S             0.170000   
    I000050   CL            0.025000   WT            1.000000   
    I000050   COST        240.000000   PRICE       320.000000   
    I000050   SCALE      2000.000000   
    I000022   K             0.220000   MG            0.108000   
    I000022   S             0.220000   CL            0.020000   
    I000022   WT            1.000000   COST        110.300000   
    I000022   PRICE       140.150000   SCALE      2000.000000   
    IEMJEO    MG            0.160000   WT            1.000000   
    IEMJEO    COST         86.000000   PRICE        86.000000   
    IEMJEO    SCALE      2000.000000   
    I130044   N             0.130000   K             0.440000   
    I130044   CL            0.005000   LIQP          8.000000   
    I130044   WT            1.000000   COST        277.000000   
    I130044   PRICE       277.000000   SCALE      2000.000000   
    IFE100    WT            1.000000   COST          0.200000   
    IFE100    PRICE         0.266700   SCALE         1.000000   
    I14B000B  WT            1.000000   COST        440.000000   
    I14B000B  PRICE       440.000000   SCALE      2000.000000   
    I20FE00   WATR          0.150000   FE            0.200000   
    I20FE00   WT            1.000000   COST         50.000000   
    I20FE00   PRICE        50.000000   SCALE      2000.000000   
    I58MN00   MN            0.580000   WT            1.000000   
    I58MN00   COST        350.000000   PRICE       350.000000   
    I58MN00   SCALE      2000.000000   
    I55FE00   FE            0.550000   WT            1.000000   
    I55FE00   COST         97.000000   PRICE        97.000000   
    I55FE00   SCALE      2000.000000   
    I50ZN00   ZN            0.500000   WT            1.000000   
    I50ZN00   COST        275.000000   PRICE       275.000000   
    I50ZN00   SCALE      2000.000000   
    I000000   MG            0.120000   CA            0.210000   
    I000000   WT            1.000000   COST         30.000000   
    I000000   PRICE        38.120000   SCALE      2000.000000   
    STEAM     WATR          1.000000   LIQP         20.000000   
    STEAM     HEAT         19.000000   WT            1.000000   
    STEAM     COST         30.000000   PRICE        30.000000   
    STEAM     SCALE      2000.000000   
    WATER     WATR          1.000000   LIQP         20.000000   
    WATER     WT            1.000000   COST          0.100000   
    WATER     PRICE         0.100000   SCALE      2000.000000   
    EVAPOR    WATR         -1.000000   HEAT        -19.000000   
    EVAPOR    WT           -1.000000   COST         25.000000   
    EVAPOR    PRICE        25.000000   SCALE      2000.000000   
    PRODUCT   WATR         -0.010000   WT           -1.000000   
    PRODUCT   COST          0.000000   PRICE         0.000000   
    PRODUCT   SCALE         1.000000   
*234567890123456789012345678901234567890123456789012345